scripts/logs/SAT-p4-enforced/bwp_5_7_1.SAT.log.out
dt jun 5 19:08:25 CEST 2018
    [1;34mTry max length:[0m 999999
    [1;34m    At iteration:[0m 0
        lingeling found a solution in .119 ms

       | W
     L | 0 1 2 3 4 
    --------------
     0 | . . . . . 
     1 | . 1 . 3 . 
     2 | . . . . . 
     3 | . . . . 4 
     4 | . . . . . 
     5 | . . . . . 
     6 | . . . 7 7 
     7 | . . . 7 7 
     8 | 2 6 6 5 5 
     9 | . 6 6 5 5 
    
    Boxes' corners:      (w,l)
        Box 1 is at 
            top left     (1,1)
            bottom right (1,1)
    
        Box 2 is at 
            top left     (0,8)
            bottom right (0,8)
    
        Box 3 is at 
            top left     (3,1)
            bottom right (3,1)
    
        Box 4 is at 
            top left     (4,3)
            bottom right (4,3)
    
        Box 5 is at 
            top left     (3,8)
            bottom right (4,9)
    
        Box 6 is at 
            top left     (1,8)
            bottom right (2,9)
    
        Box 7 is at 
            top left     (3,6)
            bottom right (4,7)
    
        Roll length used: 10

    [1;34mTry max length:[0m 9
    [1;34m    At iteration:[0m 1
        lingeling found a solution in .100 ms

      | W
    L | 0 1 2 3 4 
    --------------
    0 | . . . . . 
    1 | . . . . . 
    2 | . . . . . 
    3 | . 1 . . . 
    4 | . . . . . 
    5 | . . . 7 7 
    6 | . . 3 7 7 
    7 | 6 6 2 5 5 
    8 | 6 6 4 5 5 
    
    Boxes' corners:      (w,l)
        Box 1 is at 
            top left     (1,3)
            bottom right (1,3)
    
        Box 2 is at 
            top left     (2,7)
            bottom right (2,7)
    
        Box 3 is at 
            top left     (2,6)
            bottom right (2,6)
    
        Box 4 is at 
            top left     (2,8)
            bottom right (2,8)
    
        Box 5 is at 
            top left     (3,7)
            bottom right (4,8)
    
        Box 6 is at 
            top left     (0,7)
            bottom right (1,8)
    
        Box 7 is at 
            top left     (3,5)
            bottom right (4,6)
    
        Roll length used: 9

    [1;34mTry max length:[0m 8
    [1;34m    At iteration:[0m 2
        lingeling found a solution in .073 ms

      | W
    L | 0 1 2 3 4 
    --------------
    0 | . . . . . 
    1 | . . . . . 
    2 | . . . . 3 
    3 | . . 1 4 . 
    4 | . . . 7 7 
    5 | . . 2 7 7 
    6 | 6 6 . 5 5 
    7 | 6 6 . 5 5 
    
    Boxes' corners:      (w,l)
        Box 1 is at 
            top left     (2,3)
            bottom right (2,3)
    
        Box 2 is at 
            top left     (2,5)
            bottom right (2,5)
    
        Box 3 is at 
            top left     (4,2)
            bottom right (4,2)
    
        Box 4 is at 
            top left     (3,3)
            bottom right (3,3)
    
        Box 5 is at 
            top left     (3,6)
            bottom right (4,7)
    
        Box 6 is at 
            top left     (0,6)
            bottom right (1,7)
    
        Box 7 is at 
            top left     (3,4)
            bottom right (4,5)
    
        Roll length used: 8

    [1;34mTry max length:[0m 7
    [1;34m    At iteration:[0m 3
        lingeling found a solution in .061 ms

      | W
    L | 0 1 2 3 4 
    --------------
    0 | . . . 6 6 
    1 | . . . 6 6 
    2 | . . . 7 7 
    3 | . . 1 7 7 
    4 | . . . . . 
    5 | 5 5 . 2 . 
    6 | 5 5 . 4 3 
    
    Boxes' corners:      (w,l)
        Box 1 is at 
            top left     (2,3)
            bottom right (2,3)
    
        Box 2 is at 
            top left     (3,5)
            bottom right (3,5)
    
        Box 3 is at 
            top left     (4,6)
            bottom right (4,6)
    
        Box 4 is at 
            top left     (3,6)
            bottom right (3,6)
    
        Box 5 is at 
            top left     (0,5)
            bottom right (1,6)
    
        Box 6 is at 
            top left     (3,0)
            bottom right (4,1)
    
        Box 7 is at 
            top left     (3,2)
            bottom right (4,3)
    
        Roll length used: 7

    [1;34mTry max length:[0m 6
    [1;34m    At iteration:[0m 4
        lingeling found a solution in .052 ms

      | W
    L | 0 1 2 3 4 
    --------------
    0 | . . . 7 7 
    1 | . . 1 7 7 
    2 | . . . 4 . 
    3 | . . . . . 
    4 | 5 5 3 6 6 
    5 | 5 5 2 6 6 
    
    Boxes' corners:      (w,l)
        Box 1 is at 
            top left     (2,1)
            bottom right (2,1)
    
        Box 2 is at 
            top left     (2,5)
            bottom right (2,5)
    
        Box 3 is at 
            top left     (2,4)
            bottom right (2,4)
    
        Box 4 is at 
            top left     (3,2)
            bottom right (3,2)
    
        Box 5 is at 
            top left     (0,4)
            bottom right (1,5)
    
        Box 6 is at 
            top left     (3,4)
            bottom right (4,5)
    
        Box 7 is at 
            top left     (3,0)
            bottom right (4,1)
    
        Roll length used: 6

    [1;34mTry max length:[0m 5
    [1;34m    At iteration:[0m 5
        lingeling found a solution in .042 ms

      | W
    L | 0 1 2 3 4 
    --------------
    0 | 1 . . 6 6 
    1 | . . . 6 6 
    2 | . 3 . 5 5 
    3 | 2 7 7 5 5 
    4 | . 7 7 . 4 
    
    Boxes' corners:      (w,l)
        Box 1 is at 
            top left     (0,0)
            bottom right (0,0)
    
        Box 2 is at 
            top left     (0,3)
            bottom right (0,3)
    
        Box 3 is at 
            top left     (1,2)
            bottom right (1,2)
    
        Box 4 is at 
            top left     (4,4)
            bottom right (4,4)
    
        Box 5 is at 
            top left     (3,2)
            bottom right (4,3)
    
        Box 6 is at 
            top left     (3,0)
            bottom right (4,1)
    
        Box 7 is at 
            top left     (1,3)
            bottom right (2,4)
    
        Roll length used: 5

    [1;34mTry max length:[0m 4
    [1;34m    At iteration:[0m 6
        lingeling found a solution in .034 ms

      | W
    L | 0 1 2 3 4 
    --------------
    0 | . . . 5 5 
    1 | 1 . 4 5 5 
    2 | 6 6 3 7 7 
    3 | 6 6 2 7 7 
    
    Boxes' corners:      (w,l)
        Box 1 is at 
            top left     (0,1)
            bottom right (0,1)
    
        Box 2 is at 
            top left     (2,3)
            bottom right (2,3)
    
        Box 3 is at 
            top left     (2,2)
            bottom right (2,2)
    
        Box 4 is at 
            top left     (2,1)
            bottom right (2,1)
    
        Box 5 is at 
            top left     (3,0)
            bottom right (4,1)
    
        Box 6 is at 
            top left     (0,2)
            bottom right (1,3)
    
        Box 7 is at 
            top left     (3,2)
            bottom right (4,3)
    
        Roll length used: 4

    [1;34mTry max length:[0m 3
    [1;34m    At iteration:[0m 7
        [3;31mlingeling determined unsatisfiability of the Boolean formula[0m
        [1;32mOptimality reached![0m
